\Generated by Cardinal Operations

Maximize
   1003.56 x_1 + 549.92 x_2 + 169.7 x_3 + 1285.81 x_4 + 1269.71 x_5 
   + 805.8200000000001 x_6 + 1134.19 x_7 + 1479.23 x_8 + 139.14 x_9 
   + 518.67 x_10 + 1088.57 x_11 + 371.56 x_12 + 956.78 x_13 + 1283.7 x_14 
   + 1184.54 x_15 + 377.8 x_16 + 701.97 x_17 + 875.91 x_18 + 951.85 x_19 
   + 869.95 x_20 + 887.0599999999999 x_21 + 1318.33 x_22 + 448.61 x_23 
   + 167.99 x_24 + 1068.1 x_25 + 872.16 x_26 + 483.26 x_27 + 1279.24 x_28 
   + 894.34 x_29 + 367.91 x_30 + 178.22 x_31 + 1030.8 x_32 + 479.44 x_33 
   + 973.62 x_34 + 1211.35 x_35 + 467.93 x_36 + 678.72 x_37 + 478.36 x_38 
   + 1196.95 x_39 + 1118.63 x_40 + 972.1 x_41 + 338.6 x_42 + 178.52 x_43 
   + 992.14 x_44 + 498.77 x_45 + 965.34 x_46 + 321.11 x_47 + 287.36 x_48 
   + 462.26 x_49 + 641.22 x_50 + 1136.87 x_51 + 1385.88 x_52 + 867.3 x_53 
   + 1175.92 x_54 + 153.61 x_55 + 753.55 x_56 + 245.81 x_57 + 507.13 x_58 
   + 513.64 x_59 + 1316.82 x_60 + 1409.21 x_61 + 1237.37 x_62 
   + 1042.66 x_63 + 156.02 x_64 + 728.62 x_65 + 971.9299999999999 x_66 
   + 1128.07 x_67 + 256.42 x_68 + 1064.72 x_69 + 348.43 x_70 + 1183.94 x_71 
Subject To
 inventory_constraint: x_1 <= 80
 x_2 <= 40
 x_3 <= 560
 x_4 <= 820
 x_5 <= 960
 x_6 <= 850
 x_7 <= 950
 x_8 <= 360
 x_9 <= 580
 x_10 <= 800
 x_11 <= 340
 x_12 <= 30
 x_13 <= 990
 x_14 <= 70
 x_15 <= 890
 x_16 <= 240
 x_17 <= 290
 x_18 <= 40
 x_19 <= 300
 x_20 <= 350
 x_21 <= 600
 x_22 <= 610
 x_23 <= 160
 x_24 <= 260
 x_25 <= 480
 x_26 <= 200
 x_27 <= 290
 x_28 <= 350
 x_29 <= 900
 x_30 <= 760
 x_31 <= 440
 x_32 <= 170
 x_33 <= 600
 x_34 <= 920
 x_35 <= 240
 x_36 <= 190
 x_37 <= 600
 x_38 <= 760
 x_39 <= 850
 x_40 <= 50
 x_41 <= 470
 x_42 <= 790
 x_43 <= 580
 x_44 <= 880
 x_45 <= 170
 x_46 <= 790
 x_47 <= 500
 x_48 <= 890
 x_49 <= 680
 x_50 <= 250
 x_51 <= 170
 x_52 <= 830
 x_53 <= 680
 x_54 <= 590
 x_55 <= 700
 x_56 <= 830
 x_57 <= 360
 x_58 <= 570
 x_59 <= 510
 x_60 <= 690
 x_61 <= 760
 x_62 <= 270
 x_63 <= 880
 x_64 <= 470
 x_65 <= 670
 x_66 <= 620
 x_67 <= 310
 x_68 <= 670
 x_69 <= 150
 x_70 <= 440
 x_71 <= 210
 demand_constraint: x_1 <= 10
 x_2 <= 6
 x_3 <= 75
 x_4 <= 121
 x_5 <= 130
 x_6 <= 112
 x_7 <= 125
 x_8 <= 54
 x_9 <= 75
 x_10 <= 102
 x_11 <= 48
 x_12 <= 4
 x_13 <= 125
 x_14 <= 9
 x_15 <= 132
 x_16 <= 29
 x_17 <= 43
 x_18 <= 5
 x_19 <= 40
 x_20 <= 48
 x_21 <= 87
 x_22 <= 79
 x_23 <= 20
 x_24 <= 33
 x_25 <= 60
 x_26 <= 25
 x_27 <= 42
 x_28 <= 52
 x_29 <= 116
 x_30 <= 95
 x_31 <= 66
 x_32 <= 25
 x_33 <= 78
 x_34 <= 138
 x_35 <= 32
 x_36 <= 28
 x_37 <= 84
 x_38 <= 102
 x_39 <= 112
 x_40 <= 7
 x_41 <= 62
 x_42 <= 109
 x_43 <= 81
 x_44 <= 131
 x_45 <= 26
 x_46 <= 109
 x_47 <= 65
 x_48 <= 121
 x_49 <= 90
 x_50 <= 31
 x_51 <= 24
 x_52 <= 122
 x_53 <= 101
 x_54 <= 76
 x_55 <= 100
 x_56 <= 125
 x_57 <= 45
 x_58 <= 80
 x_59 <= 64
 x_60 <= 98
 x_61 <= 102
 x_62 <= 40
 x_63 <= 110
 x_64 <= 59
 x_65 <= 97
 x_66 <= 90
 x_67 <= 43
 x_68 <= 96
 x_69 <= 21
 x_70 <= 55
 x_71 <= 30
Generals
 x_1  x_2  x_3  x_4  x_5  x_6  x_7  x_8  x_9  x_10  x_11  x_12  x_13  x_14  
 x_15  x_16  x_17  x_18  x_19  x_20  x_21  x_22  x_23  x_24  x_25  x_26  
 x_27  x_28  x_29  x_30  x_31  x_32  x_33  x_34  x_35  x_36  x_37  x_38  
 x_39  x_40  x_41  x_42  x_43  x_44  x_45  x_46  x_47  x_48  x_49  x_50  
 x_51  x_52  x_53  x_54  x_55  x_56  x_57  x_58  x_59  x_60  x_61  x_62  
 x_63  x_64  x_65  x_66  x_67  x_68  x_69  x_70  x_71  
END

